201,406
463,248
639,140
729,371
734,433
769,527
1093,705
947,448
576,261
488,140
463,248
504,378
741,406
729,371
765,322
888,374
947,448
755,634
644,643
539,452
504,378
201,406
168,240
518,86
681,706
681,736
1108,189
945,42
734,433
635,702
998,842
1028,583
685,435
539,452
317,670
681,676
888,374
921,284
